\ENCODING=ISO-8859-1
\Problem name: 

Maximize
 objrepeat: x21
Subject To
 reach0:     M0 + s2 - s24  = 0
 reach1:     M1 + s3 - s25  = 0
 reach2:     M2 + s4 - s26  = 0
 reach3:     M3 + s5 - s27  = 0
 reach4:     M4 + s7 - s30  = 0
 reach5:     M5 + s8 - s31  = 0
 reach6:     M6 + s9 - s32  = 0
 reach7:     M7 + s10 - s33  = 0
 reach8:     M8 + s11 - s34  = 0
 reach9:     M9 + s12 - s35  = 0
 reach10:    M10 + s18 - s42  = 0
 reach11:    M11 + s16 - s40 - s43 - s47  = 0
 reach12:    M12 + s17 - s41 - s44 - s45 - s48  = 0
 reach13:    M13 + s13 - s36  = 0
 reach14:    M14 + s15 - s37 - s39  = 0
 reach15:    M15 + s14 - s38 - s49  = 0
 reach16:    M16 + s1 - s22 - s50  = 0
 reach17:    M17 + s19 - s23  = 0
 reach18:    M18 + s6 - s28 - s51  = 0
 reach19:    M19 + s20 - s29  = 0
 reach20:    M20 + s0 - s21  = 1
 reach21:    M21 + s21 - s46  = 0
 reach22:    M22 - s0 + s22 + s23  = 0
 reach23:    M23 - s1 + s24  = 0
 reach24:    M24 - s2 + s25  = 0
 reach25:    M25 - s3 + s26  = 0
 reach26:    M26 - s4 + s27  = 0
 reach27:    M27 - s5 + s28 + s29  = 0
 reach28:    M28 - s6 + s30  = 0
 reach29:    M29 - s7 + s31  = 0
 reach30:    M30 - s8 + s32  = 0
 reach31:    M31 - s9 + s33  = 0
 reach32:    M32 - s10 + s34  = 0
 reach33:    M33 - s11 + s35  = 0
 reach34:    M34 - s12 + s36 + s37  = 0
 reach35:    M35 - s13 + s38  = 0
 reach36:    M36 - s14 + s39 + s40 + s41  = 0
 reach37:    M37 - s15 + s42 + s43 + s44  = 0
 reach38:    M38 - s16 + s45  = 0
 reach39:    M39 - s17 + s46  = 0
 reach40:    M40 - s18 + s47 + s48 + s49  = 0
 reach41:    M41 - s19 + s50  = 0
 reach42:    M42 - s20 + s51  = 0
 flow43:     - x2 + x24  = 0
 flow44:     - x3 + x25  = 0
 flow45:     - x4 + x26  = 0
 flow46:     - x5 + x27  = 0
 flow47:     - x7 + x30  = 0
 flow48:     - x8 + x31  = 0
 flow49:     - x9 + x32  = 0
 flow50:     - x10 + x33  = 0
 flow51:     - x11 + x34  = 0
 flow52:     - x12 + x35  = 0
 flow53:     - x18 + x42  = 0
 flow54:     - x16 + x40 + x43 + x47  = 0
 flow55:     - x17 + x41 + x44 + x45 + x48  = 0
 flow56:     - x13 + x36  = 0
 flow57:     - x15 + x37 + x39  = 0
 flow58:     - x14 + x38 + x49  = 0
 flow59:     - x1 + x22 + x50  = 0
 flow60:     - x19 + x23  = 0
 flow61:     - x6 + x28 + x51  = 0
 flow62:     - x20 + x29  = 0
 flow63:     - x0 + x21  = 0
 flow64:     - x21 + x46  = 0
 flow65:     x0 - x22 - x23  = 0
 flow66:     x1 - x24  = 0
 flow67:     x2 - x25  = 0
 flow68:     x3 - x26  = 0
 flow69:     x4 - x27  = 0
 flow70:     x5 - x28 - x29  = 0
 flow71:     x6 - x30  = 0
 flow72:     x7 - x31  = 0
 flow73:     x8 - x32  = 0
 flow74:     x9 - x33  = 0
 flow75:     x10 - x34  = 0
 flow76:     x11 - x35  = 0
 flow77:     x12 - x36 - x37  = 0
 flow78:     x13 - x38  = 0
 flow79:     x14 - x39 - x40 - x41  = 0
 flow80:     x15 - x42 - x43 - x44  = 0
 flow81:     x16 - x45  = 0
 flow82:     x17 - x46  = 0
 flow83:     x18 - x47 - x48 - x49  = 0
 flow84:     x19 - x50  = 0
 flow85:     x20 - x51  = 0
 little86:   M20 - 2326.97464145574 x0 >= 0
 little87:   M16 - 1950.2913684557 x1 >= 0
 little88:   M0 - 1800.69166420115 x2 >= 0
 little89:   M1 - 1758.8378041398 x3 >= 0
 little90:   M2 - 1726.4516017085 x4 >= 0
 little91:   M3 - 1515.78468196605 x5 >= 0
 little92:   M18 - 1506.91830450688 x6 >= 0
 little93:   M4 - 1500.75598715376 x7 >= 0
 little94:   M5 - 1492.51271049531 x8 >= 0
 little95:   M6 - 1491.8122368979 x9 >= 0
 little96:   M7 - 1493.00429666773 x10 >= 0
 little97:   M8 - 1493.82673243153 x11 >= 0
 little98:   M9 - 1456.48520680792 x12 >= 0
 little99:   M13 - 1516.74043584572 x13 >= 0
 little100:  M15 - 1469.37298653195 x14 >= 0
 little101:  M14 - 1439.26135061353 x15 >= 0
 little102:  M11 - 1759.46777507374 x16 >= 0
 little103:  M12 - 1447.3629990791 x17 >= 0
 little104:  M10 - 1495.28405426649 x18 >= 0
 little105:  M17 - 1588.70629754589 x19 >= 0
 little106:  M19 - 1605.52500439527 x20 >= 0
 routing107: 0.133333333333333 x22 - 0.866666666666667 x23  = 0
 routing108: - 0.133333333333333 x22 + 0.866666666666667 x23  = 0
 routing109: 0.133333333333333 x28 - 0.866666666666667 x29  = 0
 routing110: - 0.133333333333333 x28 + 0.866666666666667 x29  = 0
 routing111: 0.133333333333333 x36 - 0.866666666666667 x37  = 0
 routing112: - 0.133333333333333 x36 + 0.866666666666667 x37  = 0
 routing113: - 0.0689655172413793 x39 + 0.931034482758621 x40
             - 0.0689655172413793 x41  = 0
 routing114: - 0.0344827586206897 x39 - 0.0344827586206897 x40
             + 0.96551724137931 x41  = 0
 routing115: 0.103448275862069 x39 - 0.896551724137931 x40
             - 0.896551724137931 x41  = 0
 routing116: 0.133333333333333 x42 - 0.866666666666667 x43
             - 0.866666666666667 x44  = 0
 routing117: - 0.0666666666666667 x42 + 0.933333333333333 x43
             - 0.0666666666666667 x44  = 0
 routing118: - 0.0666666666666667 x42 - 0.0666666666666667 x43
             + 0.933333333333333 x44  = 0
 routing119: - 0.230769230769231 x47 + 0.769230769230769 x48
             - 0.230769230769231 x49  = 0
 routing120: - 0.115384615384615 x47 - 0.115384615384615 x48
             + 0.884615384615385 x49  = 0
 routing121: 0.346153846153846 x47 - 0.653846153846154 x48
             - 0.653846153846154 x49  = 0
End
